25 32  0 0 0 
0  -5   -1.05  0
1  -0 -1.05  0
2  5   -1.05  0
3  5   -1  0
4  0 -1  0
5  -5   -1  0
6  -5   0     0
7  0 0     0
8  5   0     0
9  5   1   0
10 0 1   0
11 -5   1   0
12 -5   1.05   0
13 0 1.05   0
14 5   1.05   0
15 -2.5 -1.05    0
16 -2.5 -1	0
17 -2.5 0	0
18 -2.5	1	0
19 -2.5	1.05	0
20 2.5 -1.05	0
21 2.5	-1	0
22 2.5	0	0
23 2.5	1	0
24 2.5	1.05	0
0 1 quad 0 15 16 5
1 1 quad 15 1 4 16
2 1 quad 1 20 21 4 
3 1 quad 20 2 3 21
4 0 quad 5 16 17 6	
5 0 quad 16 4 7 17
6 0 quad 4 21 22 7
7 0 quad 21 3 8 22
8 0 quad 6 17 18 11
9 0 quad 17 7 10 18
10 0 quad 7 22 23 10
11 0 quad 22 8 9 23
12 1 quad 11 18 19 12
13 1 quad 18 10 13 19
14 1 quad 10 23 24 13
15 1 quad 23 9 14 24
16 2 line 0 15
17 2 line 15 1 
18 2 line 1 20
19 2 line 20 2 
20 82 line 2 3
21 1 line 3 8
22 1 line 8 9
23 82 line 9 14
24 2 line 14 24 
25 2 line 24 13
26 2 line 13 19
27 2 line 19 12
28 80 line 12 11
29 0 line 11 6
30 0 line 6 5
31 80 line 5 0
